9 A

0 60 120 60 2 62 122 62 850
306 0 60 366 308 2 62 368 919
612 306 0 306 614 308 2 308 1225
306 366 60 0 308 368 62 2 1121
2 62 122 62 0 60 120 60 848
308 2 62 368 306 0 60 366 917
614 308 2 308 612 306 0 306 1223
308 368 62 2 306 366 60 0 1119
253 182 242 313 251 180 240 311 0